Sat 19 May 19:12:21 CEST 2018
CPXPARAM_TimeLimit                               45
CPXPARAM_Threads                                 1
CPXPARAM_MIP_Strategy_CallbackReducedLP          0
Tried aggregator 6 times.
MIP Presolve eliminated 2682 rows and 2692 columns.
MIP Presolve modified 1812 coefficients.
Aggregator did 5430 substitutions.
Reduced MIP has 5714 rows, 5081 columns, and 12914 nonzeros.
Reduced MIP has 4620 binaries, 11 generals, 0 SOSs, and 786 indicators.
Presolve time = 0.06 sec. (113.61 ticks)
Found incumbent of value 28.000000 after 0.10 sec. (146.22 ticks)
Probing time = 0.12 sec. (97.06 ticks)
Cover probing fixed 0 vars, tightened 11 bounds.
Tried aggregator 3 times.
MIP Presolve eliminated 1746 rows and 450 columns.
MIP Presolve modified 528 coefficients.
Aggregator did 2616 substitutions.
Reduced MIP has 1352 rows, 2015 columns, and 5438 nonzeros.
Reduced MIP has 2004 binaries, 11 generals, 0 SOSs, and 786 indicators.
Presolve time = 0.01 sec. (19.08 ticks)
Probing time = 0.03 sec. (19.67 ticks)
Tried aggregator 3 times.
Aggregator did 462 substitutions.
Reduced MIP has 890 rows, 1553 columns, and 4514 nonzeros.
Reduced MIP has 1542 binaries, 11 generals, 0 SOSs, and 786 indicators.
Presolve time = 0.01 sec. (7.60 ticks)
Probing time = 0.02 sec. (17.71 ticks)
Tried aggregator 1 time.
Reduced MIP has 890 rows, 1553 columns, and 4514 nonzeros.
Reduced MIP has 1542 binaries, 11 generals, 0 SOSs, and 786 indicators.
Presolve time = 0.00 sec. (6.01 ticks)
Probing time = 0.00 sec. (2.97 ticks)
Clique table members: 21508.
MIP emphasis: balance optimality and feasibility.
MIP search method: dynamic search.
Parallel mode: none, using 1 thread.
Root relaxation solution time = 0.00 sec. (1.99 ticks)

        Nodes                                         Cuts/
   Node  Left     Objective  IInf  Best Integer    Best Bound    ItCnt     Gap

*     0+    0                           28.0000        4.0000            85.71%
      0     0        4.0000   726       28.0000        4.0000       48   85.71%
      0     0        4.0000   602       28.0000  Cliques: 322      209   85.71%
      0     0        4.0000   460       28.0000  Cliques: 322      490   85.71%
      0     0        4.0000   347       28.0000  Cliques: 322      873   85.71%
      0     0        4.0000   170       28.0000  Cliques: 322     1169   85.71%
      0     0        4.0000    19       28.0000  Cliques: 322     1411   85.71%
      0     0        4.0000    22       28.0000     Cuts: 322     1511   85.71%
*     0+    0                           19.0000        4.0000            78.95%
*     0+    0                           18.0000        4.0000            77.78%
*     0+    0                           15.0000        4.0000            73.33%
*     0+    0                           13.0000        4.0000            69.23%
*     0+    0                           12.0000        4.0000            66.67%
*     0+    0                           11.0000        4.0000            63.64%
*     0+    0                           10.0000        4.0000            60.00%
      0     0        cutoff             10.0000        4.0000     1511   60.00%
Elapsed time = 1.40 sec. (1438.15 ticks, tree = 0.01 MB, solutions = 9)

Clique cuts applied:  537
Implied bound cuts applied:  19

Root node processing (before b&c):
  Real time             =    1.41 sec. (1439.14 ticks)
Sequential b&c:
  Real time             =    0.00 sec. (0.00 ticks)
                          ------------
Total (root+branch&cut) =    1.41 sec. (1439.14 ticks)
   | W
 L |  0 1 2 
-----------
 0 |  6 1 2 
 1 |  6 1 2 
 2 |  6 1 2 
 3 |  6 1 2 
 4 |  9 4 7 
 5 | 10 4 3 
 6 |  5 4 3 
 7 |  5 4 3 
 8 |  5 8 3 
 9 |  5 . . 
10 |  . . . 
11 |  . . . 
12 |  . . . 
13 |  . . . 
14 |  . . . 
15 |  . . . 
16 |  . . . 
17 |  . . . 
18 |  . . . 
19 |  . . . 
20 |  . . . 
21 |  . . . 
22 |  . . . 
23 |  . . . 
24 |  . . . 
25 |  . . . 
26 |  . . . 
27 |  . . . 

Boxes' corners:       (w,l)
    Box  1 is at 
        top left     (1,0)
        bottom right (1,3)

    Box  2 is at 
        top left     (2,0)
        bottom right (2,3)

    Box  3 is at 
        top left     (2,5)
        bottom right (2,8)

    Box  4 is at 
        top left     (1,4)
        bottom right (1,7)

    Box  5 is at 
        top left     (0,6)
        bottom right (0,9)

    Box  6 is at 
        top left     (0,0)
        bottom right (0,3)

    Box  7 is at 
        top left     (2,4)
        bottom right (2,4)

    Box  8 is at 
        top left     (1,8)
        bottom right (1,8)

    Box  9 is at 
        top left     (0,4)
        bottom right (0,4)

    Box 10 is at 
        top left     (0,5)
        bottom right (0,5)

    Roll length used: 10
In 1.47 seconds
